p tw 110 594
1 3
1 5
1 2
1 6
1 4
2 3
2 5
2 6
2 4
3 5
3 6
3 7
3 9
3 4
3 10
3 8
4 5
4 6
4 7
4 9
4 10
4 8
5 9
5 11
5 6
5 12
5 10
6 9
6 11
6 12
6 10
7 9
7 10
7 13
7 15
7 8
7 16
7 14
8 9
8 10
8 13
8 15
8 16
8 14
9 11
9 12
9 15
9 17
9 10
9 18
9 16
10 11
10 12
10 15
10 17
10 18
10 16
11 17
11 19
11 12
11 20
11 18
12 17
12 19
12 20
12 18
13 15
13 16
13 21
13 23
13 14
13 24
13 22
14 15
14 16
14 21
14 23
14 24
14 22
15 17
15 18
15 23
15 25
15 16
15 26
15 24
16 17
16 18
16 23
16 25
16 26
16 24
17 19
17 20
17 25
17 27
17 18
17 28
17 26
18 19
18 20
18 25
18 27
18 28
18 26
19 27
19 29
19 20
19 30
19 28
20 27
20 29
20 30
20 28
21 23
21 24
21 31
21 33
21 22
21 34
21 32
22 23
22 24
22 31
22 33
22 34
22 32
23 25
23 26
23 33
23 35
23 24
23 36
23 34
24 25
24 26
24 33
24 35
24 36
24 34
25 27
25 28
25 35
25 37
25 26
25 38
25 36
26 27
26 28
26 35
26 37
26 38
26 36
27 29
27 30
27 37
27 39
27 28
27 40
27 38
28 29
28 30
28 37
28 39
28 40
28 38
29 39
29 41
29 30
29 42
29 40
30 39
30 41
30 42
30 40
31 33
31 34
31 43
31 45
31 32
31 46
31 44
32 33
32 34
32 43
32 45
32 46
32 44
33 35
33 36
33 45
33 47
33 34
33 48
33 46
34 35
34 36
34 45
34 47
34 48
34 46
35 37
35 38
35 47
35 49
35 36
35 50
35 48
36 37
36 38
36 47
36 49
36 50
36 48
37 39
37 40
37 49
37 51
37 38
37 50
37 52
38 39
38 40
38 49
38 51
38 50
38 52
39 41
39 42
39 51
39 53
39 40
39 54
39 52
40 41
40 42
40 51
40 53
40 54
40 52
41 53
41 55
41 42
41 56
41 54
42 53
42 55
42 56
42 54
43 45
43 46
43 57
43 59
43 44
43 60
43 58
44 45
44 46
44 57
44 59
44 60
44 58
45 47
45 48
45 59
45 61
45 46
45 62
45 60
46 47
46 48
46 59
46 61
46 62
46 60
47 49
47 50
47 61
47 63
47 48
47 64
47 62
48 49
48 50
48 61
48 63
48 64
48 62
49 51
49 63
49 65
49 50
49 66
49 64
50 51
50 52
50 63
50 65
50 66
50 64
51 53
51 54
51 65
51 67
51 52
51 68
51 66
52 53
52 54
52 65
52 67
52 68
52 66
53 55
53 56
53 67
53 69
53 54
53 70
53 68
54 55
54 56
54 67
54 69
54 70
54 68
55 69
55 71
55 56
55 72
55 70
56 69
56 71
56 72
56 70
57 59
57 60
57 73
57 75
57 58
57 76
57 74
58 59
58 60
58 73
58 75
58 76
58 74
59 61
59 62
59 75
59 77
59 60
59 78
59 76
60 61
60 62
60 75
60 77
60 78
60 76
61 63
61 64
61 77
61 79
61 62
61 80
61 78
62 63
62 64
62 77
62 79
62 80
62 78
63 65
63 66
63 79
63 81
63 64
63 82
63 80
64 65
64 66
64 79
64 81
64 82
64 80
65 67
65 68
65 81
65 83
65 66
65 84
65 82
66 67
66 68
66 81
66 83
66 84
66 82
67 69
67 70
67 83
67 85
67 68
67 86
67 84
68 69
68 70
68 83
68 85
68 86
68 84
69 71
69 72
69 85
69 87
69 70
69 88
69 86
70 71
70 72
70 85
70 87
70 88
70 86
71 87
71 89
71 72
71 90
71 88
72 87
72 89
72 90
72 88
73 75
73 76
73 91
73 93
73 74
73 94
73 92
74 75
74 76
74 91
74 93
74 94
74 92
75 77
75 78
75 93
75 95
75 76
75 96
75 94
76 77
76 78
76 93
76 95
76 96
76 94
77 79
77 80
77 95
77 97
77 78
77 98
77 96
78 79
78 80
78 95
78 97
78 98
78 96
79 81
79 82
79 97
79 99
79 80
79 100
79 98
80 81
80 82
80 97
80 99
80 100
80 98
81 83
81 84
81 99
81 101
81 82
81 102
81 100
82 83
82 84
82 99
82 101
82 102
82 100
83 85
83 86
83 101
83 103
83 84
83 104
83 102
84 85
84 86
84 101
84 103
84 104
84 102
85 87
85 88
85 103
85 105
85 86
85 106
85 104
86 87
86 88
86 103
86 105
86 106
86 104
87 89
87 90
87 105
87 107
87 88
87 108
87 106
88 89
88 90
88 105
88 107
88 108
88 106
89 107
89 109
89 90
89 110
89 108
90 107
90 109
90 110
90 108
91 93
91 94
91 92
92 93
92 94
93 95
93 96
93 94
94 95
94 96
95 97
95 98
95 96
96 97
96 98
97 99
97 100
97 98
98 99
98 100
99 101
99 102
99 100
100 101
100 102
101 103
101 104
101 102
102 103
102 104
103 105
103 106
103 104
104 105
104 106
105 107
105 108
105 106
106 107
106 108
107 109
107 110
107 108
108 109
108 110
109 110
